language Essence 1.3

letting bot_end be [59, 25, 169, 8, 90, 180, 92, 65, 26, 76, 202, 15, 78, 224, 124, 2, 17, 160, 91, 33, 179; int(1..21)]
letting bot_start be
        [9, 92, 17, 221, 47, 225, 46, 26, 48, 39, 122, 170, 169, 174, 23, 85, 232, 69, 226, 4, 104; int(1..21)]
letting bots be 21
letting buffer_col be 2
letting buffer_row be 2
letting corridor_size be 1
letting n_shelves_col be 3
letting n_shelves_row be 7
letting shelf_col_size be 2
letting shelf_row_size be 1
